c turning on binary mode checking
c parsing input formula with 202048 variables and 780985 clauses
c finished parsing, read 17044130 bytes from proof file
c detected empty clause; start verification via backward checking
c 21826 of 780985 clauses in core                            
c 27322 of 458081 lemmas in core using 237342 resolution steps
c 0 RAT lemmas in core; 2177 redundant literals in core lemmas
s VERIFIED
c verification time: 2.541 seconds
